
%FILE DATA:	Soccer Computational Problem for MiniZinc Models	%
%AUTHOR:	Jack Wall	%
%CONTACT:  	116397063@umail.ucc.ie			%
%LAST UPDATE:	03/19/2020, 13:39:23						%
%DESCRIPTION: 	165 games played with 45 games left				%


n=15; %number of teams

%Games to play
games=[|15,11|5,9|14,8|11,8|1,5|11,4|15,13|1,7|15,14|10,13|14,12|9,11|9,6|7,14|6,13|1,11|6,14|5,11|12,3|6,1|8,15|10,12|15,5|2,15|2,3|2,12|10,14|5,12|4,10|11,3|12,2|15,4|13,1|10,9|4,7|6,8|13,12|10,11|13,5|2,6|15,2|2,10|8,2|13,10|15,10|];

%Initial points
iPoints=[30,34,32,30,27,28,30,18,30,24,31,40,28,31,30];

%POSITION CONSTRAINTS
% [|teamID, operator, position|...]
% operators index:
%  1 for =  operator
%  2 for >  operator
%  3 for >= operator
%  4 for <  operator
%  5 for <= operator
positionConstraints=[|12,5,1|2,3,2|10,3,3|1,3,4|];